SCIP Status        : solving was interrupted [time limit reached]
Total Time         :    3600.00
  solving          :    3600.00
  presolving       :       0.36 (included in solving)
  reading          :       0.00
  copying          :       2.25 (71 #copies) (minimal 0.00, maximal 0.09, average 0.03)
Original Problem   :
  Problem name     : bbbenchmark/g05_100.0.cut
  Variables        : 101 (100 binary, 0 integer, 0 implicit integer, 1 continuous)
  Constraints      : 1 initial, 1 maximal
  Objective        : minimize, 1 non-zeros (abs.min = 1, abs.max = 1)
Presolved Problem  :
  Problem name     : t_bbbenchmark/g05_100.0.cut
  Variables        : 1806 (100 binary, 0 integer, 1690 implicit integer, 16 continuous)
  Constraints      : 1736 initial, 7409 maximal
  Objective        : minimize, 1 non-zeros (abs.min = 1, abs.max = 1)
  Nonzeros         : 8521 constraint, 202 clique table
Presolvers         :   ExecTime  SetupTime  Calls  FixedVars   AggrVars   ChgTypes  ChgBounds   AddHoles    DelCons    AddCons   ChgSides   ChgCoefs
  boundshift       :       0.00       0.00      0          0          0          0          0          0          0          0          0          0
  convertinttobin  :       0.00       0.00      0          0          0          0          0          0          0          0          0          0
  domcol           :       0.00       0.00      1          0          0          0          0          0          0          0          0          0
  dualagg          :       0.00       0.00      0          0          0          0          0          0          0          0          0          0
  dualcomp         :       0.00       0.00      1          0          0          0          0          0          0          0          0          0
  dualinfer        :       0.00       0.00      0          0          0          0          0          0          0          0          0          0
  dualsparsify     :       0.00       0.00      1          0          0          0          0          0          0          0          0          0
  gateextraction   :       0.00       0.00      0          0          0          0          0          0          0          0          0          0
  implics          :       0.00       0.00      2          0          0          0          0          0          0          0          0          0
  inttobinary      :       0.00       0.00      0          0          0          0          0          0          0          0          0          0
  qpkktref         :       0.00       0.00      0          0          0          0          0          0          0          0          0          0
  redvub           :       0.00       0.00      0          0          0          0          0          0          0          0          0          0
  sparsify         :       0.00       0.00      1          0          0          0          0          0          0          0          0          0
  stuffing         :       0.00       0.00      0          0          0          0          0          0          0          0          0          0
  trivial          :       0.00       0.00      4          0          0          0          0          0          0          0          0          0
  tworowbnd        :       0.00       0.00      0          0          0          0          0          0          0          0          0          0
  dualfix          :       0.00       0.00      4          0          0          0          0          0          0          0          0          0
  genvbounds       :       0.00       0.00      0          0          0          0          0          0          0          0          0          0
  probing          :       0.28       0.00      1          0          0          0          0          0          0          0          0          0
  pseudoobj        :       0.00       0.00      1          0          0          0          1          0          0          0          0          0
  symmetry         :       0.00       0.00      0          0          0          0          0          0          0          0          0          0
  vbounds          :       0.00       0.00      1          0          0          0          0          0          0          0          0          0
  varbound         :       0.00       0.00      2          0          0          0          0          0          0          0          0          0
  and              :       0.00       0.00      2          0          0          0          0          0          0          0          0          0
  linear           :       0.01       0.00      2          0          0          0          0          0          0          0          0          0
  logicor          :       0.00       0.00      0          0          0          0          0          0          0          0          0          0
  bounddisjunction :       0.00       0.00      0          0          0          0          0          0          0          0          0          0
  nonlinear        :       0.06       0.01      5          0          0          0          1          0          0       1735          0          0
  benders          :       0.00       0.00      0          0          0          0          0          0          0          0          0          0
  components       :       0.01       0.00      1          0          0          0          0          0          0          0          0          0
  root node        :          -          -      -          0          -          -         15          -          -          -          -          -
Constraints        :     Number  MaxNumber  #Separate #Propagate    #EnfoLP    #EnfoRelax  #EnfoPS    #Check   #ResProp    Cutoffs    DomReds       Cuts    Applied      Conss   Children
  benderslp        :          0          0          0          0     138168          0          0       3907          0          0          0          0          0          0          0
  integral         :          0          0          0          0     138168          0          0       3907          0          0          6          0          0          1     276322
  varbound         :         15         15        141     781599          0          0          0         31          0          0     114435          0          0          0          0
  and              :       1690       1690     157871     843460          1          0          0         31     459231          0     199939       5275       5230          0          0
  linear           :         31+        38        141     843501          1          0          0         29        699         10     438945          0          0          0          0
  logicor          :          0+      5530          0     124898          0          0          0          0          9        344         24          0          0          0          0
  bounddisjunction :          0+       200          0      65935          0          0          0          0          0         21          1          0          0          0          0
  benders          :          0          0          0          0          1          0          0         31          0          0          0          0          0          0          0
  countsols        :          0          0          0          0          1          0          0         31          0          0          0          0          0          0          0
  components       :          0          0          0          0          0          0          0          0          0          0          0          0          0          0          0
Constraint Timings :  TotalTime  SetupTime   Separate  Propagate     EnfoLP     EnfoPS     EnfoRelax   Check    ResProp    SB-Prop
  benderslp        :       0.15       0.00       0.00       0.00       0.15       0.00       0.00       0.00       0.00       0.00
  integral         :      66.28       0.00       0.00       0.00      66.25       0.00       0.00       0.03       0.00       0.00
  varbound         :       1.45       0.00       0.00       1.44       0.00       0.00       0.00       0.00       0.00       0.01
  and              :     116.01       0.00      83.19      31.87       0.00       0.00       0.00       0.01       0.38       0.56
  linear           :       5.10       0.00       0.04       5.02       0.00       0.00       0.00       0.00       0.01       0.03
  logicor          :      11.24       0.00       0.00      11.22       0.00       0.00       0.00       0.00       0.00       0.02
  bounddisjunction :       0.98       0.00       0.00       0.98       0.00       0.00       0.00       0.00       0.00       0.00
  benders          :       0.00       0.00       0.00       0.00       0.00       0.00       0.00       0.00       0.00       0.00
  countsols        :       0.00       0.00       0.00       0.00       0.00       0.00       0.00       0.00       0.00       0.00
  components       :       0.14       0.00       0.00       0.14       0.00       0.00       0.00       0.00       0.00       0.00
Propagators        : #Propagate   #ResProp    Cutoffs    DomReds
  dualfix          :          4          0          0          0
  genvbounds       :          0          0          0          0
  nlobbt           :          0          0          0          0
  obbt             :          0          0          0          0
  probing          :          0          0          0          0
  pseudoobj        :     609537          0          0         17
  redcost          :     307007          0          0      83184
  rootredcost      :         14          0          0          0
  symmetry         :          0          0          0          0
  vbounds          :     165106          0          0          0
Propagator Timings :  TotalTime  SetupTime   Presolve  Propagate    ResProp    SB-Prop
  dualfix          :       0.00       0.00       0.00       0.00       0.00       0.00
  genvbounds       :       0.60       0.00       0.00       0.60       0.00       0.00
  nlobbt           :       0.00       0.00       0.00       0.00       0.00       0.00
  obbt             :       0.00       0.00       0.00       0.00       0.00       0.00
  probing          :       0.28       0.00       0.28       0.00       0.00       0.00
  pseudoobj        :       1.08       0.00       0.00       1.08       0.00       0.00
  redcost          :      20.16       0.00       0.00      20.14       0.00       0.02
  rootredcost      :       0.86       0.00       0.00       0.86       0.00       0.00
  symmetry         :       0.48       0.00       0.00       0.48       0.00       0.00
  vbounds          :       0.97       0.00       0.00       0.97       0.00       0.00
Conflict Analysis  :       Time      Calls    Success    DomReds  Conflicts   Literals    Reconvs ReconvLits   Dualrays   Nonzeros   LP Iters   (pool size: [10000,10000])
  propagation      :       0.00        366        273          -        330       63.9          0        0.0          -          -          -
  infeasible LP    :       0.08         39         39          -       1333      161.5          0        0.0         80      143.0          0
  bound exceed. LP :      15.12       5126       4962          -     128068      109.1          0        0.0          0        0.0      37050
  strong branching :       0.00          0          0          -          0        0.0          0        0.0          -          -          0
  pseudo solution  :       0.00          0          0          -          0        0.0          0        0.0          -          -          -
  applied globally :       0.59          -          -          0      29522      115.7          -          -         80          -          -
  applied locally  :          -          -          -          0          0        0.0          -          -          0          -          -
Separators         :   ExecTime  SetupTime      Calls  RootCalls    Cutoffs    DomReds  FoundCuts ViaPoolAdd  DirectAdd    Applied ViaPoolApp  DirectApp      Conss
  cut pool         :       5.44          -      25383        175          -          -      36471    1273321          -          -          -          -          -    (maximal pool size:       3804)
  aggregation      :      47.44       0.00       5015        141          0          0         77        644          0        179        179          0          0
  > cmir           :          -          -          -          -          -          -          -        644          0        179        179          0          -
  > flowcover      :          -          -          -          -          -          -          -          0          0          0          0          0          -
  > knapsackcover  :          -          -          -          -          -          -          -          0          0          0          0          0          -
  cgmip            :       0.00       0.00          0          0          0          0          0          0          0          0          0          0          0
  clique           :       0.00       0.00        141        141          0          0          0          0          0          0          0          0          0
  closecuts        :       0.00       0.00          0          0          0          0          0          0          0          0          0          0          0
  convexproj       :       0.00       0.00          0          0          0          0          0          0          0          0          0          0          0
  disjunctive      :       0.00       0.00          0          0          0          0          0          0          0          0          0          0          0
  eccuts           :       0.00       0.00          0          0          0          0          0          0          0          0          0          0          0
  gauge            :       0.00       0.00          0          0          0          0          0          0          0          0          0          0          0
  gomory           :       0.00       0.00          0          0          0          0          0          0          0          0          0          0          0
  > gomorymi       :          -          -          -          -          -          -          -          0          0          0          0          0          -
  > strongcg       :          -          -          -          -          -          -          -          0          0          0          0          0          -
  impliedbounds    :       0.34       0.00       5015        141          0          0          0          0          0          0          0          0          0
  interlattice     :       0.57       0.00        103        103          0          0        103          0        103        102          0        102          0
  interminor       :       0.00       0.00          0          0          0          0          0          0          0          0          0          0          0
  intersub         :       0.11       0.00          3          3          0          0          1          0          1          1          0          1          0
  intobj           :       0.00       0.00          0          0          0          0          0          0          0          0          0          0          0
  mcf              :       0.00       0.00          1          1          0          0          0          0          0          0          0          0          0
  minor            :       0.03       0.00          0          0          0          0          0          0          0          0          0          0          0
  mixing           :       0.02       0.00       5015        141          0          0          0          0          0          0          0          0          0
  oddcycle         :       0.00       0.00          0          0          0          0          0          0          0          0          0          0          0
  rapidlearning    :       0.00       0.00          0          0          0          0          0          0          0          0          0          0          0
  rlt              :       0.00       0.00         10         10          0          0          0          0          0          0          0          0          0
  zerohalf         :      40.68       0.00       4424         20          0          0      36394    1272677          0     140526     140526          0          0
Cutselectors       :   ExecTime  SetupTime      Calls  RootCalls   Selected     Forced   Filtered  RootSelec   RootForc   RootFilt 
  hybrid           :       1.41       0.00      15385        142     146038          0    1132662        303          0         11
Pricers            :   ExecTime  SetupTime      Calls       Vars
  problem variables:       0.00          -          0          0
Branching Rules    :   ExecTime  SetupTime   BranchLP  BranchExt   BranchPS    Cutoffs    DomReds       Cuts      Conss   Children
  allfullstrong    :       0.00       0.00          0          0          0          0          0          0          0          0
  cloud            :       0.00       0.00          0          0          0          0          0          0          0          0
  distribution     :       0.00       0.00          0          0          0          0          0          0          0          0
  fullstrong       :       0.00       0.00          0          0          0          0          0          0          0          0
  inference        :       0.00       0.00          0          0          0          0          0          0          0          0
  leastinf         :       0.00       0.00          0          0          0          0          0          0          0          0
  lookahead        :       0.00       0.00          0          0          0          0          0          0          0          0
  mostinf          :       0.00       0.00          0          0          0          0          0          0          0          0
  multaggr         :       0.00       0.00          0          0          0          0          0          0          0          0
  nodereopt        :       0.00       0.00          0          0          0          0          0          0          0          0
  pscost           :       0.00       0.00          0          0          0          0          0          0          0          0
  random           :       0.00       0.00          0          0          0          0          0          0          0          0
  relpscost        :      65.85       0.00     138167          0          0          0          6          0          1     276322
  vanillafullstrong:       0.00       0.00          0          0          0          0          0          0          0          0
Primal Heuristics  :   ExecTime  SetupTime      Calls      Found       Best
  LP solutions     :       0.00          -          -          1          1
  relax solutions  :       0.00          -          -          0          0
  pseudo solutions :       0.00          -          -          0          0
  strong branching :       0.04          -          -          0          0
  actconsdiving    :       0.00       0.00          0          0          0
  adaptivediving   :       3.78       0.00         30          0          0
  alns             :       6.93       0.00         23          7          6
  bound            :       0.00       0.00          0          0          0
  clique           :       0.01       0.00          1          0          0
  coefdiving       :       0.00       0.00          0          0          0
  completesol      :       0.00       0.00          0          0          0
  conflictdiving   :     106.52       0.00        813          0          0
  crossover        :       0.15       0.00          2          0          0
  dins             :       0.00       0.00          0          0          0
  distributiondivin:      79.71       0.00        352          0          0
  dps              :       0.00       0.00          0          0          0
  dualval          :       0.00       0.00          0          0          0
  farkasdiving     :       0.00       0.00          0          0          0
  feaspump         :       0.17       0.00          1          1          1
  fixandinfer      :       0.00       0.00          0          0          0
  fracdiving       :      55.50       0.00        456          0          0
  gins             :       0.28       0.00          0          0          0
  guideddiving     :      59.46       0.00        457          1          1
  indicator        :       0.10       0.00          0          0          0
  indicatordiving  :       0.00       0.00          0          0          0
  intdiving        :       0.00       0.00          0          0          0
  intshifting      :       0.19       0.00         33          0          0
  linesearchdiving :      55.30       0.00        442          0          0
  localbranching   :       0.00       0.00          0          0          0
  locks            :       0.01       0.00          1          0          0
  lpface           :       0.18       0.00          0          0          0
  mpec             :     175.55       0.00         11          3          3
  multistart       :       0.00       0.00          0          0          0
  mutation         :       0.00       0.00          0          0          0
  nlpdiving        :      21.64       0.00          6          0          0
  objpscostdiving  :      61.29       0.00         78          7          1
  octane           :       0.00       0.00          0          0          0
  ofins            :       0.17       0.00          0          0          0
  oneopt           :       0.20       0.00         19          0          0
  padm             :       0.00       0.00          0          0          0
  proximity        :       0.00       0.00          0          0          0
  pscostdiving     :      56.60       0.00        411          1          1
  randrounding     :       0.96       0.00       3872          0          0
  rens             :       0.00       0.00          0          0          0
  reoptsols        :       0.00       0.00          0          0          0
  repair           :       0.00       0.00          0          0          0
  rins             :       5.45       0.00         45          2          2
  rootsoldiving    :      32.90       0.00         31          0          0
  rounding         :       1.76       0.00       5356          0          0
  shiftandpropagate:       0.00       0.00          0          0          0
  shifting         :      39.10       0.00       9604          3          3
  simplerounding   :       0.12       0.00          0          0          0
  subnlp           :     235.65       0.00          0          0          0
  trivial          :       0.00       0.00          2          2          2
  trivialnegation  :       0.00       0.00          0          0          0
  trustregion      :       0.00       0.00          0          0          0
  trysol           :       0.32       0.00          0          0          0
  twoopt           :       0.00       0.00          0          0          0
  undercover       :       1.58       0.00          1          1          1
  vbounds          :       0.00       0.00          0          0          0
  veclendiving     :      57.58       0.00        454          0          0
  zeroobj          :       0.00       0.00          0          0          0
  zirounding       :       0.28       0.00       1000          0          0
  other solutions  :          -          -          -          0          -
Diving (single)    :      Calls      Nodes   LP Iters Backtracks  Conflicts   MinDepth   MaxDepth   AvgDepth  RoundSols  NLeafSols  MinSolDpt  MaxSolDpt  AvgSolDpt
  actconsdiving    :          0          -          -          -          -          -          -          -          -          -          -          -          -
  coefdiving       :          0          -          -          -          -          -          -          -          -          -          -          -          -
  conflictdiving   :        813      34174    1079570        810      51917         54         83       62.0          0          -          -          -          -
  distributiondivin:        352      13330     587400        408       6410         52         72       57.7          0          -          -          -          -
  farkasdiving     :          0          -          -          -          -          -          -          -          -          -          -          -          -
  fracdiving       :        456      52903     534487         93       1022         56        409      136.9          0          -          -          -          -
  guideddiving     :        457      45596     586948        129       4278         56        238      120.2          0          1        116        116      116.0
  indicatordiving  :          0          -          -          -          -          -          -          -          -          -          -          -          -
  linesearchdiving :        442      18186     584921        396      23337         46         94       61.3          0          -          -          -          -
  pscostdiving     :        411      19145     595261        413      11561         54         80       67.6          0          1         80         80       80.0
  veclendiving     :        454      18233     582952        444      29899         54         84       60.1          0          -          -          -          -
Diving (adaptive)  :      Calls      Nodes   LP Iters Backtracks  Conflicts   MinDepth   MaxDepth   AvgDepth  RoundSols  NLeafSols  MinSolDpt  MaxSolDpt  AvgSolDpt
  actconsdiving    :          2         86       2760          3         27         60         61       60.5          0          -          -          -          -
  coefdiving       :         10        451      12550          7        583         53         89       63.5          0          -          -          -          -
  conflictdiving   :          0          -          -          -          -          -          -          -          -          -          -          -          -
  distributiondivin:          0          -          -          -          -          -          -          -          -          -          -          -          -
  farkasdiving     :          0          -          -          -          -          -          -          -          -          -          -          -          -
  fracdiving       :          2        223       2849          0          0        108        141      124.5          0          -          -          -          -
  guideddiving     :          0          -          -          -          -          -          -          -          -          -          -          -          -
  indicatordiving  :          0          -          -          -          -          -          -          -          -          -          -          -          -
  linesearchdiving :         10        443      12250          8        503         52         82       65.4          0          -          -          -          -
  pscostdiving     :          3        154       4733          3         47         69         74       70.7          0          -          -          -          -
  veclendiving     :          3        131       4002          3        191         56         72       62.0          0          -          -          -          -
Neighborhoods      :      Calls  SetupTime  SolveTime SolveNodes       Sols       Best       Exp3  EpsGreedy        UCB TgtFixRate  Opt  Inf Node Stal  Sol  Usr Othr Actv
  rens             :          3       0.17       0.13         64          0          0    0.00000   -1.00000    0.47666      0.662    0    2    0    1    0    0    0    1
  rins             :          3       0.13       1.74       2331          3          3    0.00000   -1.00000    0.48487      0.662    0    1    0    1    1    0    0    1
  mutation         :          2       0.06       0.08         66          0          0    0.00000   -1.00000    0.46582      0.850    0    1    0    1    0    0    0    1
  localbranching   :          2       0.17       0.08        133          0          0    0.00000   -1.00000    0.44792      0.850    0    1    0    1    0    0    0    1
  crossover        :          6       0.38       0.80        203          1          1    0.00000   -1.00000    0.48232      0.506    1    3    0    2    0    0    0    1
  proximity        :          2       0.05       1.19       1276          2          1    0.00000   -1.00000    0.50072      0.850    1    0    0    1    0    0    0    1
  zeroobjective    :          3       0.12       1.40        602          1          1    0.00000   -1.00000    0.49320      0.662    1    1    0    1    0    0    0    1
  dins             :          2       0.16       0.11        126          0          0    0.00000   -1.00000    0.44788      0.850    0    1    0    1    0    0    0    1
  trustregion      :          0       0.00       0.00          0          0          0    0.00000   -1.00000    1.00000      0.900    0    0    0    0    0    0    0    0
Expressions        :   #IntEval  IntEvalTi   #RevProp  RevPropTi    DomReds    Cutoffs  #Estimate  EstimTime  Branching  #Simplify SimplifyTi Simplified
  pow              :          0       0.00          0       0.00          0          0          0       0.00          0          0       0.00          0
  prod             :       9900       0.00          0       0.00          0          0          0       0.00          0       6640       0.00          0
  sum              :          8       0.00          2       0.00          0          0          0       0.00          0          3       0.02          2
  var              :       6227       0.00          0       0.00          0          0          0       0.00          0      15288       0.00          0
  varidx           :          0       0.00          0       0.00          0          0          0       0.00          0          0       0.00          0
LP                 :       Time      Calls Iterations  Iter/call   Iter/sec  Time-0-It Calls-0-It    ItLimit
  primal LP        :     124.71      19923          0       0.00       0.00     124.62      19923
  dual LP          :    1858.36     257416   11404483      47.10    6136.85       6.93      15277
  lex dual LP      :       0.00          0          0       0.00          -
  barrier LP       :       0.00          0          0       0.00          -       0.00          0
  resolve instable :       0.00          0          0       0.00          -
  diving/probing LP:     480.19      17956    5139592     286.23   10703.25
  strong branching :      24.24       1727     243475     140.98   10044.35          -          -       1211
    (at root node) :          -         19       5540     291.58          -
  conflict analysis:       5.62       3800      37050       9.75    6592.53
NLP relaxation     :
  solve time       :      21.28 (22 calls)
  convexity        :  nonconvex (46 linear rows, 0 convex ineq., 0 nonconvex ineq., 1690 nonlinear eq. or two-sided ineq.)
NLP Solvers        :  #Problems  ProblemTi    #Solves  SolveTime      #Iter  Time/Iter      #Okay #TimeLimit #IterLimit #LObjLimit #Interrupt  #NumError #EvalError  #OutOfMem #LicenseEr #OtherTerm   #GlobOpt    #LocOpt  #Feasible #LocInfeas #GlobInfea #Unbounded   #Unknown
  ipopt            :         12       9.10         63     198.71       1564       0.13         61          0          2          0          0          0          0          0          0          0          0         45          0         12          0          0          6
B&B Tree           :
  number of runs   :          1
  nodes            :     226744 (138161 internal, 88583 leaves)
  feasible leaves  :          1
  infeas. leaves   :         13
  objective leaves :      88568
  nodes (total)    :     226744 (138161 internal, 88583 leaves)
  nodes left       :      49205
  max depth        :         60
  max depth (total):         60
  backtracks       :      56857 (25.1%)
  early backtracks :          0 (0.0%)
  nodes exc. ref.  :          0 (0.0%)
  delayed cutoffs  :          2
  repropagations   :         23 (32 domain reductions, 0 cutoffs)
  avg switch length:       6.74
  switching time   :     185.73
Estim. Tree Size   :     454236
Estimation Tree    : 276323 nodes (227118 visited, 138161 internal, 88957 leaves, 49205 open), weight: 0.0000 completed 0.0889
Estimations        :      estim      value      trend resolution     smooth
  wbe              : 1145057106635613          -          -          -          -
  tree-profile     :         -1          -          -          -          -
  gap              :    6551754    0.68094    0.00001        128    6580561
  tree-weight      :     454236    0.00000    0.00000        128     453441
  leaf-frequency   :    6962577    0.39168    0.00000        128    6646484
  ssg              :   13028532    0.85960   -0.00002        128   13230111
  open-nodes       :     454236 49205.00000   35.21862        128     453441
Root Node          :
  First LP value   : -1.00000000000000e+00
  First LP Iters   :       1630 (11642.86 Iter/sec)
  First LP Time    :       0.14
  Final Dual Bound : -9.47148692065253e-01
  Final Root Iters :       3976
  Root LP Estimate : -2.54216110938235e-01
Solution           :
  Solutions found  :         29 (22 improvements)
  First Solution   : +1.00000000000000e+05   (in run 1, after 0 nodes, 0.00 seconds, depth 0, found by <trivial>)
  Gap First Sol.   :   infinite
  Gap Last Sol.    :      47.97 %
  Primal Bound     : -5.63232323232321e-01   (in run 1, after 159337 nodes, 1958.05 seconds, depth 20, found by <alns>)
  Dual Bound       : -8.27137959989640e-01
  Gap              :      46.86 %
Integrals          :      Total       Avg%
  primal-dual      :  123163.00      34.21
  primal-ref       :          -          - (not evaluated)
  dual-ref         :          -          - (not evaluated)
